(declare-const in128 Int)
(declare-const in129 Int)
(declare-const in126 Int)
(declare-const in127 Int)
(declare-const in121 Int)
(declare-const in124 Int)
(declare-const in21 Int)
(declare-const in125 Int)
(declare-const in122 Int)
(declare-const in123 Int)
(declare-const in117 Int)
(declare-const in118 Int)
(declare-const in115 Int)
(declare-const in116 Int)
(declare-const in119 Int)
(declare-const in95 Int)
(declare-const in94 Int)
(declare-const in97 Int)
(declare-const in96 Int)
(declare-const in113 Int)
(declare-const in98 Int)
(declare-const in114 Int)
(declare-const in111 Int)
(declare-const in1311 Int)
(declare-const in112 Int)
(declare-const in1310 Int)
(declare-const in1312 Int)
(declare-const in106 Int)
(declare-const in107 Int)
(declare-const in104 Int)
(declare-const in105 Int)
(declare-const in108 Int)
(declare-const in109 Int)
(declare-const in42 Int)
(declare-const in41 Int)
(declare-const in102 Int)
(declare-const in43 Int)
(declare-const in103 Int)
(declare-const in101 Int)
(declare-const in31 Int)
(declare-const in32 Int)
(declare-const in1410 Int)
(declare-const in1413 Int)
(declare-const in1411 Int)
(declare-const in1412 Int)
(declare-const in71 Int)
(declare-const in62 Int)
(declare-const in61 Int)
(declare-const in64 Int)
(declare-const in63 Int)
(declare-const in65 Int)
(declare-const in159 Int)
(declare-const in51 Int)
(declare-const in153 Int)
(declare-const in154 Int)
(declare-const in53 Int)
(declare-const in151 Int)
(declare-const in52 Int)
(declare-const in152 Int)
(declare-const in157 Int)
(declare-const in54 Int)
(declare-const in1110 Int)
(declare-const in158 Int)
(declare-const in155 Int)
(declare-const in156 Int)
(declare-const in1512 Int)
(declare-const in1513 Int)
(declare-const in1510 Int)
(declare-const in1511 Int)
(declare-const in1514 Int)
(declare-const in148 Int)
(declare-const in149 Int)
(declare-const in91 Int)
(declare-const in93 Int)
(declare-const in92 Int)
(declare-const in84 Int)
(declare-const in142 Int)
(declare-const in83 Int)
(declare-const in143 Int)
(declare-const in86 Int)
(declare-const in85 Int)
(declare-const in141 Int)
(declare-const in146 Int)
(declare-const in87 Int)
(declare-const in147 Int)
(declare-const in144 Int)
(declare-const in02 Int)
(declare-const in145 Int)
(declare-const in01 Int)
(declare-const in04 Int)
(declare-const in03 Int)
(declare-const in06 Int)
(declare-const in05 Int)
(declare-const in08 Int)
(declare-const in07 Int)
(declare-const in09 Int)
(declare-const in139 Int)
(declare-const in137 Int)
(declare-const in138 Int)
(declare-const in82 Int)
(declare-const in81 Int)
(declare-const in73 Int)
(declare-const in131 Int)
(declare-const in010 Int)
(declare-const in72 Int)
(declare-const in132 Int)
(declare-const in011 Int)
(declare-const in75 Int)
(declare-const in74 Int)
(declare-const in1210 Int)
(declare-const in135 Int)
(declare-const in014 Int)
(declare-const in76 Int)
(declare-const in015 Int)
(declare-const in136 Int)
(declare-const in133 Int)
(declare-const in012 Int)
(declare-const in1211 Int)
(declare-const in134 Int)
(declare-const in013 Int)

(assert (and (and (and (and (and (and (and (and (and (and (and (and (and (and (and (and (and (and (and (and (and (and (and (and (and (and (and (and (and (and (and (and (and (and (and (and (and (and (and (and (and (and (and (and (and (and (and (and (and (and (and (and (and (and (and (and (and (and (and (and (and (and (and (and (and (and (and (and (and (and (and (and (and (and (and (and (and (and (and (and (and (and (and (and (and (and (and (and (and (and (and (and (and (and (and (and (and (and (and (and (and (and (and (and (and (and (and (and (and (and (and (and (and (and (and (and (and (and (and (and (and (and (and (and (and (and (and (and (and (and (and (and (and (and (and (and (and (and (and (and (and (and (and (and (and (and (and (and (and (and (and (and (and (and (and (and (and (and (and (and (and (and (and (and (and (and (and (and (and (and (and (and (and (and (and (and (and (and (and (and (and (and (and (and (and (and (and (and (and (and (and (and (and (and (and (and (and (and (and (and (and (and (and (and (and (and (and (and (and  ( <  in02 in01)  ( <  in03 in02))  ( <  in04 in03))  ( <  in05 in04))  ( <  in06 in05))  ( <  in07 in06))  ( <  in08 in07))  ( <  in09 in08))  ( <  in010 in09))  ( <  in011 in010))  ( <  in012 in011))  ( <  in013 in012))  ( <  in014 in013))  ( <  in015 in014))  ( <  ( +  in151 in015) in01))  ( <  ( +  in152 in015) in02))  ( <  ( +  in153 in015) in03))  ( <  ( +  in154 in015) in04))  ( <  ( +  in155 in015) in05))  ( <  ( +  in156 in015) in06))  ( <  ( +  in157 in015) in07))  ( <  ( +  in158 in015) in08))  ( <  ( +  in159 in015) in09))  ( <  ( +  in1510 in015) in010))  ( <  ( +  in1511 in015) in011))  ( <  ( +  in1512 in015) in012))  ( <  ( +  in1513 in015) in013))  ( <  ( +  in1514 in015) in014))  ( <  ( +  in152 in015) ( +  in151 in015)))  ( <  ( +  in153 in015) ( +  in152 in015)))  ( <  ( +  in154 in015) ( +  in153 in015)))  ( <  ( +  in155 in015) ( +  in154 in015)))  ( <  ( +  in156 in015) ( +  in155 in015)))  ( <  ( +  in157 in015) ( +  in156 in015)))  ( <  ( +  in158 in015) ( +  in157 in015)))  ( <  ( +  in159 in015) ( +  in158 in015)))  ( <  ( +  in1510 in015) ( +  in159 in015)))  ( <  ( +  in1511 in015) ( +  in1510 in015)))  ( <  ( +  in1512 in015) ( +  in1511 in015)))  ( <  ( +  in1513 in015) ( +  in1512 in015)))  ( <  ( +  in1514 in015) ( +  in1513 in015)))  ( <  ( +  in141 ( +  in1514 in015)) ( +  in151 in015)))  ( <  ( +  in142 ( +  in1514 in015)) ( +  in152 in015)))  ( <  ( +  in143 ( +  in1514 in015)) ( +  in153 in015)))  ( <  ( +  in144 ( +  in1514 in015)) ( +  in154 in015)))  ( <  ( +  in145 ( +  in1514 in015)) ( +  in155 in015)))  ( <  ( +  in146 ( +  in1514 in015)) ( +  in156 in015)))  ( <  ( +  in147 ( +  in1514 in015)) ( +  in157 in015)))  ( <  ( +  in148 ( +  in1514 in015)) ( +  in158 in015)))  ( <  ( +  in149 ( +  in1514 in015)) ( +  in159 in015)))  ( <  ( +  in1410 ( +  in1514 in015)) ( +  in1510 in015)))  ( <  ( +  in1411 ( +  in1514 in015)) ( +  in1511 in015)))  ( <  ( +  in1412 ( +  in1514 in015)) ( +  in1512 in015)))  ( <  ( +  in1413 ( +  in1514 in015)) ( +  in1513 in015)))  ( <  ( +  in142 ( +  in1514 in015)) ( +  in141 ( +  in1514 in015))))  ( <  ( +  in143 ( +  in1514 in015)) ( +  in142 ( +  in1514 in015))))  ( <  ( +  in144 ( +  in1514 in015)) ( +  in143 ( +  in1514 in015))))  ( <  ( +  in145 ( +  in1514 in015)) ( +  in144 ( +  in1514 in015))))  ( <  ( +  in146 ( +  in1514 in015)) ( +  in145 ( +  in1514 in015))))  ( <  ( +  in147 ( +  in1514 in015)) ( +  in146 ( +  in1514 in015))))  ( <  ( +  in148 ( +  in1514 in015)) ( +  in147 ( +  in1514 in015))))  ( <  ( +  in149 ( +  in1514 in015)) ( +  in148 ( +  in1514 in015))))  ( <  ( +  in1410 ( +  in1514 in015)) ( +  in149 ( +  in1514 in015))))  ( <  ( +  in1411 ( +  in1514 in015)) ( +  in1410 ( +  in1514 in015))))  ( <  ( +  in1412 ( +  in1514 in015)) ( +  in1411 ( +  in1514 in015))))  ( <  ( +  in1413 ( +  in1514 in015)) ( +  in1412 ( +  in1514 in015))))  ( <  ( +  in131 ( +  in1413 ( +  in1514 in015))) ( +  in141 ( +  in1514 in015))))  ( <  ( +  in132 ( +  in1413 ( +  in1514 in015))) ( +  in142 ( +  in1514 in015))))  ( <  ( +  in133 ( +  in1413 ( +  in1514 in015))) ( +  in143 ( +  in1514 in015))))  ( <  ( +  in134 ( +  in1413 ( +  in1514 in015))) ( +  in144 ( +  in1514 in015))))  ( <  ( +  in135 ( +  in1413 ( +  in1514 in015))) ( +  in145 ( +  in1514 in015))))  ( <  ( +  in136 ( +  in1413 ( +  in1514 in015))) ( +  in146 ( +  in1514 in015))))  ( <  ( +  in137 ( +  in1413 ( +  in1514 in015))) ( +  in147 ( +  in1514 in015))))  ( <  ( +  in138 ( +  in1413 ( +  in1514 in015))) ( +  in148 ( +  in1514 in015))))  ( <  ( +  in139 ( +  in1413 ( +  in1514 in015))) ( +  in149 ( +  in1514 in015))))  ( <  ( +  in1310 ( +  in1413 ( +  in1514 in015))) ( +  in1410 ( +  in1514 in015))))  ( <  ( +  in1311 ( +  in1413 ( +  in1514 in015))) ( +  in1411 ( +  in1514 in015))))  ( <  ( +  in1312 ( +  in1413 ( +  in1514 in015))) ( +  in1412 ( +  in1514 in015))))  ( <  ( +  in132 ( +  in1413 ( +  in1514 in015))) ( +  in131 ( +  in1413 ( +  in1514 in015)))))  ( <  ( +  in133 ( +  in1413 ( +  in1514 in015))) ( +  in132 ( +  in1413 ( +  in1514 in015)))))  ( <  ( +  in134 ( +  in1413 ( +  in1514 in015))) ( +  in133 ( +  in1413 ( +  in1514 in015)))))  ( <  ( +  in135 ( +  in1413 ( +  in1514 in015))) ( +  in134 ( +  in1413 ( +  in1514 in015)))))  ( <  ( +  in136 ( +  in1413 ( +  in1514 in015))) ( +  in135 ( +  in1413 ( +  in1514 in015)))))  ( <  ( +  in137 ( +  in1413 ( +  in1514 in015))) ( +  in136 ( +  in1413 ( +  in1514 in015)))))  ( <  ( +  in138 ( +  in1413 ( +  in1514 in015))) ( +  in137 ( +  in1413 ( +  in1514 in015)))))  ( <  ( +  in139 ( +  in1413 ( +  in1514 in015))) ( +  in138 ( +  in1413 ( +  in1514 in015)))))  ( <  ( +  in1310 ( +  in1413 ( +  in1514 in015))) ( +  in139 ( +  in1413 ( +  in1514 in015)))))  ( <  ( +  in1311 ( +  in1413 ( +  in1514 in015))) ( +  in1310 ( +  in1413 ( +  in1514 in015)))))  ( <  ( +  in1312 ( +  in1413 ( +  in1514 in015))) ( +  in1311 ( +  in1413 ( +  in1514 in015)))))  ( <  ( +  in121 ( +  in1312 ( +  in1413 ( +  in1514 in015)))) ( +  in131 ( +  in1413 ( +  in1514 in015)))))  ( <  ( +  in122 ( +  in1312 ( +  in1413 ( +  in1514 in015)))) ( +  in132 ( +  in1413 ( +  in1514 in015)))))  ( <  ( +  in123 ( +  in1312 ( +  in1413 ( +  in1514 in015)))) ( +  in133 ( +  in1413 ( +  in1514 in015)))))  ( <  ( +  in124 ( +  in1312 ( +  in1413 ( +  in1514 in015)))) ( +  in134 ( +  in1413 ( +  in1514 in015)))))  ( <  ( +  in125 ( +  in1312 ( +  in1413 ( +  in1514 in015)))) ( +  in135 ( +  in1413 ( +  in1514 in015)))))  ( <  ( +  in126 ( +  in1312 ( +  in1413 ( +  in1514 in015)))) ( +  in136 ( +  in1413 ( +  in1514 in015)))))  ( <  ( +  in127 ( +  in1312 ( +  in1413 ( +  in1514 in015)))) ( +  in137 ( +  in1413 ( +  in1514 in015)))))  ( <  ( +  in128 ( +  in1312 ( +  in1413 ( +  in1514 in015)))) ( +  in138 ( +  in1413 ( +  in1514 in015)))))  ( <  ( +  in129 ( +  in1312 ( +  in1413 ( +  in1514 in015)))) ( +  in139 ( +  in1413 ( +  in1514 in015)))))  ( <  ( +  in1210 ( +  in1312 ( +  in1413 ( +  in1514 in015)))) ( +  in1310 ( +  in1413 ( +  in1514 in015)))))  ( <  ( +  in1211 ( +  in1312 ( +  in1413 ( +  in1514 in015)))) ( +  in1311 ( +  in1413 ( +  in1514 in015)))))  ( <  ( +  in122 ( +  in1312 ( +  in1413 ( +  in1514 in015)))) ( +  in121 ( +  in1312 ( +  in1413 ( +  in1514 in015))))))  ( <  ( +  in123 ( +  in1312 ( +  in1413 ( +  in1514 in015)))) ( +  in122 ( +  in1312 ( +  in1413 ( +  in1514 in015))))))  ( <  ( +  in124 ( +  in1312 ( +  in1413 ( +  in1514 in015)))) ( +  in123 ( +  in1312 ( +  in1413 ( +  in1514 in015))))))  ( <  ( +  in125 ( +  in1312 ( +  in1413 ( +  in1514 in015)))) ( +  in124 ( +  in1312 ( +  in1413 ( +  in1514 in015))))))  ( <  ( +  in126 ( +  in1312 ( +  in1413 ( +  in1514 in015)))) ( +  in125 ( +  in1312 ( +  in1413 ( +  in1514 in015))))))  ( <  ( +  in127 ( +  in1312 ( +  in1413 ( +  in1514 in015)))) ( +  in126 ( +  in1312 ( +  in1413 ( +  in1514 in015))))))  ( <  ( +  in128 ( +  in1312 ( +  in1413 ( +  in1514 in015)))) ( +  in127 ( +  in1312 ( +  in1413 ( +  in1514 in015))))))  ( <  ( +  in129 ( +  in1312 ( +  in1413 ( +  in1514 in015)))) ( +  in128 ( +  in1312 ( +  in1413 ( +  in1514 in015))))))  ( <  ( +  in1210 ( +  in1312 ( +  in1413 ( +  in1514 in015)))) ( +  in129 ( +  in1312 ( +  in1413 ( +  in1514 in015))))))  ( <  ( +  in1211 ( +  in1312 ( +  in1413 ( +  in1514 in015)))) ( +  in1210 ( +  in1312 ( +  in1413 ( +  in1514 in015))))))  ( <  ( +  in111 ( +  in1211 ( +  in1312 ( +  in1413 ( +  in1514 in015))))) ( +  in121 ( +  in1312 ( +  in1413 ( +  in1514 in015))))))  ( <  ( +  in112 ( +  in1211 ( +  in1312 ( +  in1413 ( +  in1514 in015))))) ( +  in122 ( +  in1312 ( +  in1413 ( +  in1514 in015))))))  ( <  ( +  in113 ( +  in1211 ( +  in1312 ( +  in1413 ( +  in1514 in015))))) ( +  in123 ( +  in1312 ( +  in1413 ( +  in1514 in015))))))  ( <  ( +  in114 ( +  in1211 ( +  in1312 ( +  in1413 ( +  in1514 in015))))) ( +  in124 ( +  in1312 ( +  in1413 ( +  in1514 in015))))))  ( <  ( +  in115 ( +  in1211 ( +  in1312 ( +  in1413 ( +  in1514 in015))))) ( +  in125 ( +  in1312 ( +  in1413 ( +  in1514 in015))))))  ( <  ( +  in116 ( +  in1211 ( +  in1312 ( +  in1413 ( +  in1514 in015))))) ( +  in126 ( +  in1312 ( +  in1413 ( +  in1514 in015))))))  ( <  ( +  in117 ( +  in1211 ( +  in1312 ( +  in1413 ( +  in1514 in015))))) ( +  in127 ( +  in1312 ( +  in1413 ( +  in1514 in015))))))  ( <  ( +  in118 ( +  in1211 ( +  in1312 ( +  in1413 ( +  in1514 in015))))) ( +  in128 ( +  in1312 ( +  in1413 ( +  in1514 in015))))))  ( <  ( +  in119 ( +  in1211 ( +  in1312 ( +  in1413 ( +  in1514 in015))))) ( +  in129 ( +  in1312 ( +  in1413 ( +  in1514 in015))))))  ( <  ( +  in1110 ( +  in1211 ( +  in1312 ( +  in1413 ( +  in1514 in015))))) ( +  in1210 ( +  in1312 ( +  in1413 ( +  in1514 in015))))))  ( <  ( +  in112 ( +  in1211 ( +  in1312 ( +  in1413 ( +  in1514 in015))))) ( +  in111 ( +  in1211 ( +  in1312 ( +  in1413 ( +  in1514 in015)))))))  ( <  ( +  in113 ( +  in1211 ( +  in1312 ( +  in1413 ( +  in1514 in015))))) ( +  in112 ( +  in1211 ( +  in1312 ( +  in1413 ( +  in1514 in015)))))))  ( <  ( +  in114 ( +  in1211 ( +  in1312 ( +  in1413 ( +  in1514 in015))))) ( +  in113 ( +  in1211 ( +  in1312 ( +  in1413 ( +  in1514 in015)))))))  ( <  ( +  in115 ( +  in1211 ( +  in1312 ( +  in1413 ( +  in1514 in015))))) ( +  in114 ( +  in1211 ( +  in1312 ( +  in1413 ( +  in1514 in015)))))))  ( <  ( +  in116 ( +  in1211 ( +  in1312 ( +  in1413 ( +  in1514 in015))))) ( +  in115 ( +  in1211 ( +  in1312 ( +  in1413 ( +  in1514 in015)))))))  ( <  ( +  in117 ( +  in1211 ( +  in1312 ( +  in1413 ( +  in1514 in015))))) ( +  in116 ( +  in1211 ( +  in1312 ( +  in1413 ( +  in1514 in015)))))))  ( <  ( +  in118 ( +  in1211 ( +  in1312 ( +  in1413 ( +  in1514 in015))))) ( +  in117 ( +  in1211 ( +  in1312 ( +  in1413 ( +  in1514 in015)))))))  ( <  ( +  in119 ( +  in1211 ( +  in1312 ( +  in1413 ( +  in1514 in015))))) ( +  in118 ( +  in1211 ( +  in1312 ( +  in1413 ( +  in1514 in015)))))))  ( <  ( +  in1110 ( +  in1211 ( +  in1312 ( +  in1413 ( +  in1514 in015))))) ( +  in119 ( +  in1211 ( +  in1312 ( +  in1413 ( +  in1514 in015)))))))  ( <  ( +  in101 ( +  in1110 ( +  in1211 ( +  in1312 ( +  in1413 ( +  in1514 in015)))))) ( +  in111 ( +  in1211 ( +  in1312 ( +  in1413 ( +  in1514 in015)))))))  ( <  ( +  in102 ( +  in1110 ( +  in1211 ( +  in1312 ( +  in1413 ( +  in1514 in015)))))) ( +  in112 ( +  in1211 ( +  in1312 ( +  in1413 ( +  in1514 in015)))))))  ( <  ( +  in103 ( +  in1110 ( +  in1211 ( +  in1312 ( +  in1413 ( +  in1514 in015)))))) ( +  in113 ( +  in1211 ( +  in1312 ( +  in1413 ( +  in1514 in015)))))))  ( <  ( +  in104 ( +  in1110 ( +  in1211 ( +  in1312 ( +  in1413 ( +  in1514 in015)))))) ( +  in114 ( +  in1211 ( +  in1312 ( +  in1413 ( +  in1514 in015)))))))  ( <  ( +  in105 ( +  in1110 ( +  in1211 ( +  in1312 ( +  in1413 ( +  in1514 in015)))))) ( +  in115 ( +  in1211 ( +  in1312 ( +  in1413 ( +  in1514 in015)))))))  ( <  ( +  in106 ( +  in1110 ( +  in1211 ( +  in1312 ( +  in1413 ( +  in1514 in015)))))) ( +  in116 ( +  in1211 ( +  in1312 ( +  in1413 ( +  in1514 in015)))))))  ( <  ( +  in107 ( +  in1110 ( +  in1211 ( +  in1312 ( +  in1413 ( +  in1514 in015)))))) ( +  in117 ( +  in1211 ( +  in1312 ( +  in1413 ( +  in1514 in015)))))))  ( <  ( +  in108 ( +  in1110 ( +  in1211 ( +  in1312 ( +  in1413 ( +  in1514 in015)))))) ( +  in118 ( +  in1211 ( +  in1312 ( +  in1413 ( +  in1514 in015)))))))  ( <  ( +  in109 ( +  in1110 ( +  in1211 ( +  in1312 ( +  in1413 ( +  in1514 in015)))))) ( +  in119 ( +  in1211 ( +  in1312 ( +  in1413 ( +  in1514 in015)))))))  ( <  ( +  in102 ( +  in1110 ( +  in1211 ( +  in1312 ( +  in1413 ( +  in1514 in015)))))) ( +  in101 ( +  in1110 ( +  in1211 ( +  in1312 ( +  in1413 ( +  in1514 in015))))))))  ( <  ( +  in103 ( +  in1110 ( +  in1211 ( +  in1312 ( +  in1413 ( +  in1514 in015)))))) ( +  in102 ( +  in1110 ( +  in1211 ( +  in1312 ( +  in1413 ( +  in1514 in015))))))))  ( <  ( +  in104 ( +  in1110 ( +  in1211 ( +  in1312 ( +  in1413 ( +  in1514 in015)))))) ( +  in103 ( +  in1110 ( +  in1211 ( +  in1312 ( +  in1413 ( +  in1514 in015))))))))  ( <  ( +  in105 ( +  in1110 ( +  in1211 ( +  in1312 ( +  in1413 ( +  in1514 in015)))))) ( +  in104 ( +  in1110 ( +  in1211 ( +  in1312 ( +  in1413 ( +  in1514 in015))))))))  ( <  ( +  in106 ( +  in1110 ( +  in1211 ( +  in1312 ( +  in1413 ( +  in1514 in015)))))) ( +  in105 ( +  in1110 ( +  in1211 ( +  in1312 ( +  in1413 ( +  in1514 in015))))))))  ( <  ( +  in107 ( +  in1110 ( +  in1211 ( +  in1312 ( +  in1413 ( +  in1514 in015)))))) ( +  in106 ( +  in1110 ( +  in1211 ( +  in1312 ( +  in1413 ( +  in1514 in015))))))))  ( <  ( +  in108 ( +  in1110 ( +  in1211 ( +  in1312 ( +  in1413 ( +  in1514 in015)))))) ( +  in107 ( +  in1110 ( +  in1211 ( +  in1312 ( +  in1413 ( +  in1514 in015))))))))  ( <  ( +  in109 ( +  in1110 ( +  in1211 ( +  in1312 ( +  in1413 ( +  in1514 in015)))))) ( +  in108 ( +  in1110 ( +  in1211 ( +  in1312 ( +  in1413 ( +  in1514 in015))))))))  ( <  ( +  in91 ( +  in109 ( +  in1110 ( +  in1211 ( +  in1312 ( +  in1413 ( +  in1514 in015))))))) ( +  in101 ( +  in1110 ( +  in1211 ( +  in1312 ( +  in1413 ( +  in1514 in015))))))))  ( <  ( +  in92 ( +  in109 ( +  in1110 ( +  in1211 ( +  in1312 ( +  in1413 ( +  in1514 in015))))))) ( +  in102 ( +  in1110 ( +  in1211 ( +  in1312 ( +  in1413 ( +  in1514 in015))))))))  ( <  ( +  in93 ( +  in109 ( +  in1110 ( +  in1211 ( +  in1312 ( +  in1413 ( +  in1514 in015))))))) ( +  in103 ( +  in1110 ( +  in1211 ( +  in1312 ( +  in1413 ( +  in1514 in015))))))))  ( <  ( +  in94 ( +  in109 ( +  in1110 ( +  in1211 ( +  in1312 ( +  in1413 ( +  in1514 in015))))))) ( +  in104 ( +  in1110 ( +  in1211 ( +  in1312 ( +  in1413 ( +  in1514 in015))))))))  ( <  ( +  in95 ( +  in109 ( +  in1110 ( +  in1211 ( +  in1312 ( +  in1413 ( +  in1514 in015))))))) ( +  in105 ( +  in1110 ( +  in1211 ( +  in1312 ( +  in1413 ( +  in1514 in015))))))))  ( <  ( +  in96 ( +  in109 ( +  in1110 ( +  in1211 ( +  in1312 ( +  in1413 ( +  in1514 in015))))))) ( +  in106 ( +  in1110 ( +  in1211 ( +  in1312 ( +  in1413 ( +  in1514 in015))))))))  ( <  ( +  in97 ( +  in109 ( +  in1110 ( +  in1211 ( +  in1312 ( +  in1413 ( +  in1514 in015))))))) ( +  in107 ( +  in1110 ( +  in1211 ( +  in1312 ( +  in1413 ( +  in1514 in015))))))))  ( <  ( +  in98 ( +  in109 ( +  in1110 ( +  in1211 ( +  in1312 ( +  in1413 ( +  in1514 in015))))))) ( +  in108 ( +  in1110 ( +  in1211 ( +  in1312 ( +  in1413 ( +  in1514 in015))))))))  ( <  ( +  in92 ( +  in109 ( +  in1110 ( +  in1211 ( +  in1312 ( +  in1413 ( +  in1514 in015))))))) ( +  in91 ( +  in109 ( +  in1110 ( +  in1211 ( +  in1312 ( +  in1413 ( +  in1514 in015)))))))))  ( <  ( +  in93 ( +  in109 ( +  in1110 ( +  in1211 ( +  in1312 ( +  in1413 ( +  in1514 in015))))))) ( +  in92 ( +  in109 ( +  in1110 ( +  in1211 ( +  in1312 ( +  in1413 ( +  in1514 in015)))))))))  ( <  ( +  in94 ( +  in109 ( +  in1110 ( +  in1211 ( +  in1312 ( +  in1413 ( +  in1514 in015))))))) ( +  in93 ( +  in109 ( +  in1110 ( +  in1211 ( +  in1312 ( +  in1413 ( +  in1514 in015)))))))))  ( <  ( +  in95 ( +  in109 ( +  in1110 ( +  in1211 ( +  in1312 ( +  in1413 ( +  in1514 in015))))))) ( +  in94 ( +  in109 ( +  in1110 ( +  in1211 ( +  in1312 ( +  in1413 ( +  in1514 in015)))))))))  ( <  ( +  in96 ( +  in109 ( +  in1110 ( +  in1211 ( +  in1312 ( +  in1413 ( +  in1514 in015))))))) ( +  in95 ( +  in109 ( +  in1110 ( +  in1211 ( +  in1312 ( +  in1413 ( +  in1514 in015)))))))))  ( <  ( +  in97 ( +  in109 ( +  in1110 ( +  in1211 ( +  in1312 ( +  in1413 ( +  in1514 in015))))))) ( +  in96 ( +  in109 ( +  in1110 ( +  in1211 ( +  in1312 ( +  in1413 ( +  in1514 in015)))))))))  ( <  ( +  in98 ( +  in109 ( +  in1110 ( +  in1211 ( +  in1312 ( +  in1413 ( +  in1514 in015))))))) ( +  in97 ( +  in109 ( +  in1110 ( +  in1211 ( +  in1312 ( +  in1413 ( +  in1514 in015)))))))))  ( <  ( +  in81 ( +  in98 ( +  in109 ( +  in1110 ( +  in1211 ( +  in1312 ( +  in1413 ( +  in1514 in015)))))))) ( +  in91 ( +  in109 ( +  in1110 ( +  in1211 ( +  in1312 ( +  in1413 ( +  in1514 in015)))))))))  ( <  ( +  in82 ( +  in98 ( +  in109 ( +  in1110 ( +  in1211 ( +  in1312 ( +  in1413 ( +  in1514 in015)))))))) ( +  in92 ( +  in109 ( +  in1110 ( +  in1211 ( +  in1312 ( +  in1413 ( +  in1514 in015)))))))))  ( <  ( +  in83 ( +  in98 ( +  in109 ( +  in1110 ( +  in1211 ( +  in1312 ( +  in1413 ( +  in1514 in015)))))))) ( +  in93 ( +  in109 ( +  in1110 ( +  in1211 ( +  in1312 ( +  in1413 ( +  in1514 in015)))))))))  ( <  ( +  in84 ( +  in98 ( +  in109 ( +  in1110 ( +  in1211 ( +  in1312 ( +  in1413 ( +  in1514 in015)))))))) ( +  in94 ( +  in109 ( +  in1110 ( +  in1211 ( +  in1312 ( +  in1413 ( +  in1514 in015)))))))))  ( <  ( +  in85 ( +  in98 ( +  in109 ( +  in1110 ( +  in1211 ( +  in1312 ( +  in1413 ( +  in1514 in015)))))))) ( +  in95 ( +  in109 ( +  in1110 ( +  in1211 ( +  in1312 ( +  in1413 ( +  in1514 in015)))))))))  ( <  ( +  in86 ( +  in98 ( +  in109 ( +  in1110 ( +  in1211 ( +  in1312 ( +  in1413 ( +  in1514 in015)))))))) ( +  in96 ( +  in109 ( +  in1110 ( +  in1211 ( +  in1312 ( +  in1413 ( +  in1514 in015)))))))))  ( <  ( +  in87 ( +  in98 ( +  in109 ( +  in1110 ( +  in1211 ( +  in1312 ( +  in1413 ( +  in1514 in015)))))))) ( +  in97 ( +  in109 ( +  in1110 ( +  in1211 ( +  in1312 ( +  in1413 ( +  in1514 in015)))))))))  ( <  ( +  in82 ( +  in98 ( +  in109 ( +  in1110 ( +  in1211 ( +  in1312 ( +  in1413 ( +  in1514 in015)))))))) ( +  in81 ( +  in98 ( +  in109 ( +  in1110 ( +  in1211 ( +  in1312 ( +  in1413 ( +  in1514 in015))))))))))  ( <  ( +  in83 ( +  in98 ( +  in109 ( +  in1110 ( +  in1211 ( +  in1312 ( +  in1413 ( +  in1514 in015)))))))) ( +  in82 ( +  in98 ( +  in109 ( +  in1110 ( +  in1211 ( +  in1312 ( +  in1413 ( +  in1514 in015))))))))))  ( <  ( +  in84 ( +  in98 ( +  in109 ( +  in1110 ( +  in1211 ( +  in1312 ( +  in1413 ( +  in1514 in015)))))))) ( +  in83 ( +  in98 ( +  in109 ( +  in1110 ( +  in1211 ( +  in1312 ( +  in1413 ( +  in1514 in015))))))))))  ( <  ( +  in85 ( +  in98 ( +  in109 ( +  in1110 ( +  in1211 ( +  in1312 ( +  in1413 ( +  in1514 in015)))))))) ( +  in84 ( +  in98 ( +  in109 ( +  in1110 ( +  in1211 ( +  in1312 ( +  in1413 ( +  in1514 in015))))))))))  ( <  ( +  in86 ( +  in98 ( +  in109 ( +  in1110 ( +  in1211 ( +  in1312 ( +  in1413 ( +  in1514 in015)))))))) ( +  in85 ( +  in98 ( +  in109 ( +  in1110 ( +  in1211 ( +  in1312 ( +  in1413 ( +  in1514 in015))))))))))  ( <  ( +  in87 ( +  in98 ( +  in109 ( +  in1110 ( +  in1211 ( +  in1312 ( +  in1413 ( +  in1514 in015)))))))) ( +  in86 ( +  in98 ( +  in109 ( +  in1110 ( +  in1211 ( +  in1312 ( +  in1413 ( +  in1514 in015))))))))))  ( <  ( +  in71 ( +  in87 ( +  in98 ( +  in109 ( +  in1110 ( +  in1211 ( +  in1312 ( +  in1413 ( +  in1514 in015))))))))) ( +  in81 ( +  in98 ( +  in109 ( +  in1110 ( +  in1211 ( +  in1312 ( +  in1413 ( +  in1514 in015))))))))))  ( <  ( +  in72 ( +  in87 ( +  in98 ( +  in109 ( +  in1110 ( +  in1211 ( +  in1312 ( +  in1413 ( +  in1514 in015))))))))) ( +  in82 ( +  in98 ( +  in109 ( +  in1110 ( +  in1211 ( +  in1312 ( +  in1413 ( +  in1514 in015))))))))))  ( <  ( +  in73 ( +  in87 ( +  in98 ( +  in109 ( +  in1110 ( +  in1211 ( +  in1312 ( +  in1413 ( +  in1514 in015))))))))) ( +  in83 ( +  in98 ( +  in109 ( +  in1110 ( +  in1211 ( +  in1312 ( +  in1413 ( +  in1514 in015))))))))))  ( <  ( +  in74 ( +  in87 ( +  in98 ( +  in109 ( +  in1110 ( +  in1211 ( +  in1312 ( +  in1413 ( +  in1514 in015))))))))) ( +  in84 ( +  in98 ( +  in109 ( +  in1110 ( +  in1211 ( +  in1312 ( +  in1413 ( +  in1514 in015))))))))))  ( <  ( +  in75 ( +  in87 ( +  in98 ( +  in109 ( +  in1110 ( +  in1211 ( +  in1312 ( +  in1413 ( +  in1514 in015))))))))) ( +  in85 ( +  in98 ( +  in109 ( +  in1110 ( +  in1211 ( +  in1312 ( +  in1413 ( +  in1514 in015))))))))))  ( <  ( +  in76 ( +  in87 ( +  in98 ( +  in109 ( +  in1110 ( +  in1211 ( +  in1312 ( +  in1413 ( +  in1514 in015))))))))) ( +  in86 ( +  in98 ( +  in109 ( +  in1110 ( +  in1211 ( +  in1312 ( +  in1413 ( +  in1514 in015))))))))))  ( <  ( +  in72 ( +  in87 ( +  in98 ( +  in109 ( +  in1110 ( +  in1211 ( +  in1312 ( +  in1413 ( +  in1514 in015))))))))) ( +  in71 ( +  in87 ( +  in98 ( +  in109 ( +  in1110 ( +  in1211 ( +  in1312 ( +  in1413 ( +  in1514 in015)))))))))))  ( <  ( +  in73 ( +  in87 ( +  in98 ( +  in109 ( +  in1110 ( +  in1211 ( +  in1312 ( +  in1413 ( +  in1514 in015))))))))) ( +  in72 ( +  in87 ( +  in98 ( +  in109 ( +  in1110 ( +  in1211 ( +  in1312 ( +  in1413 ( +  in1514 in015)))))))))))  ( <  ( +  in74 ( +  in87 ( +  in98 ( +  in109 ( +  in1110 ( +  in1211 ( +  in1312 ( +  in1413 ( +  in1514 in015))))))))) ( +  in73 ( +  in87 ( +  in98 ( +  in109 ( +  in1110 ( +  in1211 ( +  in1312 ( +  in1413 ( +  in1514 in015)))))))))))  ( <  ( +  in75 ( +  in87 ( +  in98 ( +  in109 ( +  in1110 ( +  in1211 ( +  in1312 ( +  in1413 ( +  in1514 in015))))))))) ( +  in74 ( +  in87 ( +  in98 ( +  in109 ( +  in1110 ( +  in1211 ( +  in1312 ( +  in1413 ( +  in1514 in015)))))))))))  ( <  ( +  in76 ( +  in87 ( +  in98 ( +  in109 ( +  in1110 ( +  in1211 ( +  in1312 ( +  in1413 ( +  in1514 in015))))))))) ( +  in75 ( +  in87 ( +  in98 ( +  in109 ( +  in1110 ( +  in1211 ( +  in1312 ( +  in1413 ( +  in1514 in015)))))))))))  ( <  ( +  in61 ( +  in76 ( +  in87 ( +  in98 ( +  in109 ( +  in1110 ( +  in1211 ( +  in1312 ( +  in1413 ( +  in1514 in015)))))))))) ( +  in71 ( +  in87 ( +  in98 ( +  in109 ( +  in1110 ( +  in1211 ( +  in1312 ( +  in1413 ( +  in1514 in015)))))))))))  ( <  ( +  in62 ( +  in76 ( +  in87 ( +  in98 ( +  in109 ( +  in1110 ( +  in1211 ( +  in1312 ( +  in1413 ( +  in1514 in015)))))))))) ( +  in72 ( +  in87 ( +  in98 ( +  in109 ( +  in1110 ( +  in1211 ( +  in1312 ( +  in1413 ( +  in1514 in015)))))))))))  ( <  ( +  in63 ( +  in76 ( +  in87 ( +  in98 ( +  in109 ( +  in1110 ( +  in1211 ( +  in1312 ( +  in1413 ( +  in1514 in015)))))))))) ( +  in73 ( +  in87 ( +  in98 ( +  in109 ( +  in1110 ( +  in1211 ( +  in1312 ( +  in1413 ( +  in1514 in015)))))))))))  ( <  ( +  in64 ( +  in76 ( +  in87 ( +  in98 ( +  in109 ( +  in1110 ( +  in1211 ( +  in1312 ( +  in1413 ( +  in1514 in015)))))))))) ( +  in74 ( +  in87 ( +  in98 ( +  in109 ( +  in1110 ( +  in1211 ( +  in1312 ( +  in1413 ( +  in1514 in015)))))))))))  ( <  ( +  in65 ( +  in76 ( +  in87 ( +  in98 ( +  in109 ( +  in1110 ( +  in1211 ( +  in1312 ( +  in1413 ( +  in1514 in015)))))))))) ( +  in75 ( +  in87 ( +  in98 ( +  in109 ( +  in1110 ( +  in1211 ( +  in1312 ( +  in1413 ( +  in1514 in015)))))))))))  ( <  ( +  in62 ( +  in76 ( +  in87 ( +  in98 ( +  in109 ( +  in1110 ( +  in1211 ( +  in1312 ( +  in1413 ( +  in1514 in015)))))))))) ( +  in61 ( +  in76 ( +  in87 ( +  in98 ( +  in109 ( +  in1110 ( +  in1211 ( +  in1312 ( +  in1413 ( +  in1514 in015))))))))))))  ( <  ( +  in63 ( +  in76 ( +  in87 ( +  in98 ( +  in109 ( +  in1110 ( +  in1211 ( +  in1312 ( +  in1413 ( +  in1514 in015)))))))))) ( +  in62 ( +  in76 ( +  in87 ( +  in98 ( +  in109 ( +  in1110 ( +  in1211 ( +  in1312 ( +  in1413 ( +  in1514 in015))))))))))))  ( <  ( +  in64 ( +  in76 ( +  in87 ( +  in98 ( +  in109 ( +  in1110 ( +  in1211 ( +  in1312 ( +  in1413 ( +  in1514 in015)))))))))) ( +  in63 ( +  in76 ( +  in87 ( +  in98 ( +  in109 ( +  in1110 ( +  in1211 ( +  in1312 ( +  in1413 ( +  in1514 in015))))))))))))  ( <  ( +  in65 ( +  in76 ( +  in87 ( +  in98 ( +  in109 ( +  in1110 ( +  in1211 ( +  in1312 ( +  in1413 ( +  in1514 in015)))))))))) ( +  in64 ( +  in76 ( +  in87 ( +  in98 ( +  in109 ( +  in1110 ( +  in1211 ( +  in1312 ( +  in1413 ( +  in1514 in015))))))))))))  ( <  ( +  in51 ( +  in65 ( +  in76 ( +  in87 ( +  in98 ( +  in109 ( +  in1110 ( +  in1211 ( +  in1312 ( +  in1413 ( +  in1514 in015))))))))))) ( +  in61 ( +  in76 ( +  in87 ( +  in98 ( +  in109 ( +  in1110 ( +  in1211 ( +  in1312 ( +  in1413 ( +  in1514 in015))))))))))))  ( <  ( +  in52 ( +  in65 ( +  in76 ( +  in87 ( +  in98 ( +  in109 ( +  in1110 ( +  in1211 ( +  in1312 ( +  in1413 ( +  in1514 in015))))))))))) ( +  in62 ( +  in76 ( +  in87 ( +  in98 ( +  in109 ( +  in1110 ( +  in1211 ( +  in1312 ( +  in1413 ( +  in1514 in015))))))))))))  ( <  ( +  in53 ( +  in65 ( +  in76 ( +  in87 ( +  in98 ( +  in109 ( +  in1110 ( +  in1211 ( +  in1312 ( +  in1413 ( +  in1514 in015))))))))))) ( +  in63 ( +  in76 ( +  in87 ( +  in98 ( +  in109 ( +  in1110 ( +  in1211 ( +  in1312 ( +  in1413 ( +  in1514 in015))))))))))))  ( <  ( +  in54 ( +  in65 ( +  in76 ( +  in87 ( +  in98 ( +  in109 ( +  in1110 ( +  in1211 ( +  in1312 ( +  in1413 ( +  in1514 in015))))))))))) ( +  in64 ( +  in76 ( +  in87 ( +  in98 ( +  in109 ( +  in1110 ( +  in1211 ( +  in1312 ( +  in1413 ( +  in1514 in015))))))))))))  ( <  ( +  in52 ( +  in65 ( +  in76 ( +  in87 ( +  in98 ( +  in109 ( +  in1110 ( +  in1211 ( +  in1312 ( +  in1413 ( +  in1514 in015))))))))))) ( +  in51 ( +  in65 ( +  in76 ( +  in87 ( +  in98 ( +  in109 ( +  in1110 ( +  in1211 ( +  in1312 ( +  in1413 ( +  in1514 in015)))))))))))))  ( <  ( +  in53 ( +  in65 ( +  in76 ( +  in87 ( +  in98 ( +  in109 ( +  in1110 ( +  in1211 ( +  in1312 ( +  in1413 ( +  in1514 in015))))))))))) ( +  in52 ( +  in65 ( +  in76 ( +  in87 ( +  in98 ( +  in109 ( +  in1110 ( +  in1211 ( +  in1312 ( +  in1413 ( +  in1514 in015)))))))))))))  ( <  ( +  in54 ( +  in65 ( +  in76 ( +  in87 ( +  in98 ( +  in109 ( +  in1110 ( +  in1211 ( +  in1312 ( +  in1413 ( +  in1514 in015))))))))))) ( +  in53 ( +  in65 ( +  in76 ( +  in87 ( +  in98 ( +  in109 ( +  in1110 ( +  in1211 ( +  in1312 ( +  in1413 ( +  in1514 in015)))))))))))))  ( <  ( +  in41 ( +  in54 ( +  in65 ( +  in76 ( +  in87 ( +  in98 ( +  in109 ( +  in1110 ( +  in1211 ( +  in1312 ( +  in1413 ( +  in1514 in015)))))))))))) ( +  in51 ( +  in65 ( +  in76 ( +  in87 ( +  in98 ( +  in109 ( +  in1110 ( +  in1211 ( +  in1312 ( +  in1413 ( +  in1514 in015)))))))))))))  ( <  ( +  in42 ( +  in54 ( +  in65 ( +  in76 ( +  in87 ( +  in98 ( +  in109 ( +  in1110 ( +  in1211 ( +  in1312 ( +  in1413 ( +  in1514 in015)))))))))))) ( +  in52 ( +  in65 ( +  in76 ( +  in87 ( +  in98 ( +  in109 ( +  in1110 ( +  in1211 ( +  in1312 ( +  in1413 ( +  in1514 in015)))))))))))))  ( <  ( +  in43 ( +  in54 ( +  in65 ( +  in76 ( +  in87 ( +  in98 ( +  in109 ( +  in1110 ( +  in1211 ( +  in1312 ( +  in1413 ( +  in1514 in015)))))))))))) ( +  in53 ( +  in65 ( +  in76 ( +  in87 ( +  in98 ( +  in109 ( +  in1110 ( +  in1211 ( +  in1312 ( +  in1413 ( +  in1514 in015)))))))))))))  ( <  ( +  in42 ( +  in54 ( +  in65 ( +  in76 ( +  in87 ( +  in98 ( +  in109 ( +  in1110 ( +  in1211 ( +  in1312 ( +  in1413 ( +  in1514 in015)))))))))))) ( +  in41 ( +  in54 ( +  in65 ( +  in76 ( +  in87 ( +  in98 ( +  in109 ( +  in1110 ( +  in1211 ( +  in1312 ( +  in1413 ( +  in1514 in015))))))))))))))  ( <  ( +  in43 ( +  in54 ( +  in65 ( +  in76 ( +  in87 ( +  in98 ( +  in109 ( +  in1110 ( +  in1211 ( +  in1312 ( +  in1413 ( +  in1514 in015)))))))))))) ( +  in42 ( +  in54 ( +  in65 ( +  in76 ( +  in87 ( +  in98 ( +  in109 ( +  in1110 ( +  in1211 ( +  in1312 ( +  in1413 ( +  in1514 in015))))))))))))))  ( <  ( +  in31 ( +  in43 ( +  in54 ( +  in65 ( +  in76 ( +  in87 ( +  in98 ( +  in109 ( +  in1110 ( +  in1211 ( +  in1312 ( +  in1413 ( +  in1514 in015))))))))))))) ( +  in41 ( +  in54 ( +  in65 ( +  in76 ( +  in87 ( +  in98 ( +  in109 ( +  in1110 ( +  in1211 ( +  in1312 ( +  in1413 ( +  in1514 in015))))))))))))))  ( <  ( +  in32 ( +  in43 ( +  in54 ( +  in65 ( +  in76 ( +  in87 ( +  in98 ( +  in109 ( +  in1110 ( +  in1211 ( +  in1312 ( +  in1413 ( +  in1514 in015))))))))))))) ( +  in42 ( +  in54 ( +  in65 ( +  in76 ( +  in87 ( +  in98 ( +  in109 ( +  in1110 ( +  in1211 ( +  in1312 ( +  in1413 ( +  in1514 in015))))))))))))))  ( <  ( +  in32 ( +  in43 ( +  in54 ( +  in65 ( +  in76 ( +  in87 ( +  in98 ( +  in109 ( +  in1110 ( +  in1211 ( +  in1312 ( +  in1413 ( +  in1514 in015))))))))))))) ( +  in31 ( +  in43 ( +  in54 ( +  in65 ( +  in76 ( +  in87 ( +  in98 ( +  in109 ( +  in1110 ( +  in1211 ( +  in1312 ( +  in1413 ( +  in1514 in015)))))))))))))))  ( <  ( +  in21 ( +  in32 ( +  in43 ( +  in54 ( +  in65 ( +  in76 ( +  in87 ( +  in98 ( +  in109 ( +  in1110 ( +  in1211 ( +  in1312 ( +  in1413 ( +  in1514 in015)))))))))))))) ( +  in31 ( +  in43 ( +  in54 ( +  in65 ( +  in76 ( +  in87 ( +  in98 ( +  in109 ( +  in1110 ( +  in1211 ( +  in1312 ( +  in1413 ( +  in1514 in015))))))))))))))))

(check-sat)
(get-model)